50

98 28 201
97 3 308
96 11 206
95 17 346
95 3 224
94 3 404
93 24 194
93 5 324
93 2 346
93 4 370
91 13 306
90 20 172
87 23 376
87 9 413
80 7 250
80 4 403
80 9 267
77 24 198
72 2 311
71 18 242
68 2 442
68 20 441
67 19 176
64 20 236
63 15 446
62 12 352
60 4 430
60 4 278
60 4 294
57 9 406
57 7 399
56 5 450
54 4 387
53 11 202
53 13 215
52 14 275
49 12 377
47 13 204
45 8 171
43 7 392
41 6 302
41 7 220
39 12 232
38 7 449
38 5 361
37 10 419
37 11 413
36 8 271
35 7 412
31 1 398
